#(C) 2022 by FIZ Karlsruhe - Leibniz Institute for Information Infrastructure.  All rights reserved.
data_17-ICSD
_database_code_ICSD 17
_audit_creation_date 1980-01-01
_audit_update_record 2016-08-01
_chemical_name_common 'Dipotassium trans-bis(carbonato)tetraaquacobaltate(II)'
_chemical_formula_structural 'K2 (Co (C O3)2 (H2 O)4)'
_chemical_formula_sum 'C2 H8 Co1 K2 O10'
_chemical_name_structure_type K2Co(CO3)2(H2O)4
_exptl_crystal_density_diffrn 2.3
_citation_title

;
The crystal and molecular structure of dipotassium
trans-dicarbonato-tetraaquocobalt(II), trans-K2 (Co (Co3)2 (H2 O)4)
;
loop_
_citation_id
_citation_journal_full
_citation_year
_citation_journal_volume
_citation_page_first
_citation_page_last
_citation_journal_id_ASTM
primary

;
Acta Crystallographica, Section B: Structural Crystallography and Crystal
Chemistry
; 1976 32 466 470 ACBCAR
loop_
_citation_author_citation_id
_citation_author_name
primary 'Harlow, R.L.'
primary 'Simonsen, S.H.'
_cell_length_a 11.450(1)
_cell_length_b 6.184(1)
_cell_length_c 6.817(1)
_cell_angle_alpha 90.
_cell_angle_beta 99.46(1)
_cell_angle_gamma 90.
_cell_volume 476.13
_cell_formula_units_Z 2
_space_group_name_H-M_alt 'P 1 21/n 1'
_space_group_IT_number 14
loop_
_space_group_symop_id
_space_group_symop_operation_xyz
1 '-x+1/2, y+1/2, -z+1/2'
2 '-x, -y, -z'
3 'x+1/2, -y+1/2, z+1/2'
4 'x, y, z'
loop_
_atom_type_symbol
_atom_type_oxidation_number
Co2+ 2
K1+ 1
C4+ 4
O2- -2
H1+ 1
loop_
_atom_site_label
_atom_site_type_symbol
_atom_site_symmetry_multiplicity
_atom_site_Wyckoff_symbol
_atom_site_fract_x
_atom_site_fract_y
_atom_site_fract_z
_atom_site_U_iso_or_equiv
_atom_site_occupancy
Co1 Co2+ 2 a 0.5 0.5 0.5 . 1.
K1 K1+ 4 e 0.31494(2) 0.14754(4) 0.08588(4) . 1.
C1 C4+ 4 e 0.32086(9) 0.15262(16) 0.57845(14) . 1.
O1 O2- 4 e 0.34941(7) 0.30923(13) 0.47004(12) . 1.
O2 O2- 4 e 0.21909(7) 0.06173(15) 0.53204(13) . 1.
O3 O2- 4 e 0.39374(7) 0.08714(15) 0.73204(12) . 1.
O4 O2- 4 e 0.59270(7) 0.27205(15) 0.70310(13) . 1.
O5 O2- 4 e 0.55212(9) 0.33189(15) 0.25671(14) . 1.
H1 H1+ 4 e 0.633 0.325 0.821 0.059(8) 1.
H2 H1+ 4 e 0.524(2) 0.216(4) 0.719(4) 0.047(7) 1.
H3 H1+ 4 e 0.606(1) 0.386(3) 0.196(3) 0.014(4) 1.
H4 H1+ 4 e 0.576(2) 0.207(4) 0.267(4) 0.041(6) 1.
loop_
_atom_site_aniso_label
_atom_site_aniso_type_symbol
_atom_site_aniso_U_11
_atom_site_aniso_U_22
_atom_site_aniso_U_33
_atom_site_aniso_U_12
_atom_site_aniso_U_13
_atom_site_aniso_U_23
Co1 Co2+ 0.0984(8) 0.1065(8) 0.1195(8) -0.0029(6) 0.0185(5) 0.0134(6)
K1 K1+ 0.1825(10) 0.1521(10) 0.1648(10) -0.0018(7) 0.0445(7) -0.0058(7)
C1 C4+ 0.0127(4) 0.0106(4) 0.0121(4) -0.0002(3) 0.0039(3) -0.0012(3)
O1 O2- 0.0137(3) 0.0152(3) 0.0154(3) -0.0030(3) 0.0012(2) 0.0039(3)
O2 O2- 0.0138(3) 0.0172(3) 0.0209(4) -0.0046(3) 0.0043(3) -0.0013(3)
O3 O2- 0.0192(4) 0.0166(4) 0.0144(3) -0.0017(3) 0.0004(3) 0.0034(3)
O4 O2- 0.0137(3) 0.0176(4) 0.0183(3) -0.0001(3) 0.0011(3) 0.0028(3)
O5 O2- 0.0232(4) 0.0150(4) 0.0216(4) 0.0017(3) 0.0108(3) 0.0005(3)
#End of TTdata_17-ICSD
